NAME           C:\Bruker\Hvattum\knapsack\Problems\class4\100-10-30.mps
ROWS
 N  OBJ
 L  CONSTR1
 L  CONSTR2
 L  CONSTR3
 L  CONSTR4
 L  CONSTR5
 L  CONSTR6
 L  CONSTR7
 L  CONSTR8
 L  CONSTR9
 L  CONSTR10
COLUMNS
    INT0001   'MARKER'  'INTORG'
    X1        OBJ       594
    X1        CONSTR1   669
    X1        CONSTR2   136
    X1        CONSTR3   175
    X1        CONSTR4   438
    X1        CONSTR5   332
    X1        CONSTR6   510
    X1        CONSTR7   53
    X1        CONSTR8   964
    X1        CONSTR9   91
    X1        CONSTR10  809
    X2        OBJ       635
    X2        CONSTR1   147
    X2        CONSTR2   958
    X2        CONSTR3   152
    X2        CONSTR4   730
    X2        CONSTR5   170
    X2        CONSTR6   264
    X2        CONSTR7   753
    X2        CONSTR8   989
    X2        CONSTR9   727
    X2        CONSTR10  753
    X3        OBJ       719
    X3        CONSTR1   95
    X3        CONSTR2   383
    X3        CONSTR3   587
    X3        CONSTR4   84
    X3        CONSTR5   614
    X3        CONSTR6   262
    X3        CONSTR7   167
    X3        CONSTR8   936
    X3        CONSTR9   607
    X3        CONSTR10  842
    X4        OBJ       961
    X4        CONSTR1   407
    X4        CONSTR2   525
    X4        CONSTR3   184
    X4        CONSTR4   938
    X4        CONSTR5   789
    X4        CONSTR6   713
    X4        CONSTR7   825
    X4        CONSTR8   41
    X4        CONSTR9   698
    X4        CONSTR10  864
    X5        OBJ       582
    X5        CONSTR1   769
    X5        CONSTR2   549
    X5        CONSTR3   363
    X5        CONSTR4   473
    X5        CONSTR5   984
    X5        CONSTR6   49
    X5        CONSTR7   235
    X5        CONSTR8   85
    X5        CONSTR9   988
    X5        CONSTR10  620
    X6        OBJ       856
    X6        CONSTR1   207
    X6        CONSTR2   327
    X6        CONSTR3   421
    X6        CONSTR4   11
    X6        CONSTR5   703
    X6        CONSTR6   517
    X6        CONSTR7   386
    X6        CONSTR8   567
    X6        CONSTR9   565
    X6        CONSTR10  298
    X7        OBJ       656
    X7        CONSTR1   981
    X7        CONSTR2   505
    X7        CONSTR3   888
    X7        CONSTR4   738
    X7        CONSTR5   291
    X7        CONSTR6   172
    X7        CONSTR7   993
    X7        CONSTR8   383
    X7        CONSTR9   515
    X7        CONSTR10  386
    X8        OBJ       692
    X8        CONSTR1   412
    X8        CONSTR2   715
    X8        CONSTR3   220
    X8        CONSTR4   41
    X8        CONSTR5   180
    X8        CONSTR6   162
    X8        CONSTR7   107
    X8        CONSTR8   590
    X8        CONSTR9   742
    X8        CONSTR10  173
    X9        OBJ       817
    X9        CONSTR1   903
    X9        CONSTR2   465
    X9        CONSTR3   985
    X9        CONSTR4   432
    X9        CONSTR5   637
    X9        CONSTR6   485
    X9        CONSTR7   557
    X9        CONSTR8   352
    X9        CONSTR9   48
    X9        CONSTR10  205
    X10       OBJ       722
    X10       CONSTR1   334
    X10       CONSTR2   967
    X10       CONSTR3   113
    X10       CONSTR4   307
    X10       CONSTR5   643
    X10       CONSTR6   328
    X10       CONSTR7   32
    X10       CONSTR8   96
    X10       CONSTR9   719
    X10       CONSTR10  792
    X11       OBJ       802
    X11       CONSTR1   3
    X11       CONSTR2   114
    X11       CONSTR3   736
    X11       CONSTR4   140
    X11       CONSTR5   776
    X11       CONSTR6   118
    X11       CONSTR7   62
    X11       CONSTR8   422
    X11       CONSTR9   631
    X11       CONSTR10  704
    X12       OBJ       630
    X12       CONSTR1   215
    X12       CONSTR2   646
    X12       CONSTR3   922
    X12       CONSTR4   341
    X12       CONSTR5   768
    X12       CONSTR6   833
    X12       CONSTR7   165
    X12       CONSTR8   533
    X12       CONSTR9   691
    X12       CONSTR10  754
    X13       OBJ       600
    X13       CONSTR1   270
    X13       CONSTR2   868
    X13       CONSTR3   502
    X13       CONSTR4   146
    X13       CONSTR5   291
    X13       CONSTR6   668
    X13       CONSTR7   981
    X13       CONSTR8   832
    X13       CONSTR9   618
    X13       CONSTR10  393
    X14       OBJ       711
    X14       CONSTR1   86
    X14       CONSTR2   836
    X14       CONSTR3   226
    X14       CONSTR4   213
    X14       CONSTR5   513
    X14       CONSTR6   963
    X14       CONSTR7   396
    X14       CONSTR8   779
    X14       CONSTR9   936
    X14       CONSTR10  273
    X15       OBJ       871
    X15       CONSTR1   476
    X15       CONSTR2   319
    X15       CONSTR3   707
    X15       CONSTR4   245
    X15       CONSTR5   661
    X15       CONSTR6   731
    X15       CONSTR7   713
    X15       CONSTR8   56
    X15       CONSTR9   291
    X15       CONSTR10  421
    X16       OBJ       701
    X16       CONSTR1   168
    X16       CONSTR2   739
    X16       CONSTR3   299
    X16       CONSTR4   386
    X16       CONSTR5   281
    X16       CONSTR6   414
    X16       CONSTR7   70
    X16       CONSTR8   464
    X16       CONSTR9   80
    X16       CONSTR10  472
    X17       OBJ       404
    X17       CONSTR1   345
    X17       CONSTR2   377
    X17       CONSTR3   55
    X17       CONSTR4   532
    X17       CONSTR5   33
    X17       CONSTR6   29
    X17       CONSTR7   461
    X17       CONSTR8   6
    X17       CONSTR9   245
    X17       CONSTR10  618
    X18       OBJ       769
    X18       CONSTR1   252
    X18       CONSTR2   85
    X18       CONSTR3   786
    X18       CONSTR4   268
    X18       CONSTR5   982
    X18       CONSTR6   840
    X18       CONSTR7   438
    X18       CONSTR8   927
    X18       CONSTR9   45
    X18       CONSTR10  296
    X19       OBJ       967
    X19       CONSTR1   465
    X19       CONSTR2   767
    X19       CONSTR3   338
    X19       CONSTR4   88
    X19       CONSTR5   583
    X19       CONSTR6   886
    X19       CONSTR7   253
    X19       CONSTR8   973
    X19       CONSTR9   751
    X19       CONSTR10  677
    X20       OBJ       960
    X20       CONSTR1   457
    X20       CONSTR2   831
    X20       CONSTR3   352
    X20       CONSTR4   725
    X20       CONSTR5   153
    X20       CONSTR6   624
    X20       CONSTR7   134
    X20       CONSTR8   686
    X20       CONSTR9   998
    X20       CONSTR10  883
    X21       OBJ       842
    X21       CONSTR1   82
    X21       CONSTR2   302
    X21       CONSTR3   930
    X21       CONSTR4   422
    X21       CONSTR5   950
    X21       CONSTR6   415
    X21       CONSTR7   443
    X21       CONSTR8   563
    X21       CONSTR9   289
    X21       CONSTR10  674
    X22       OBJ       801
    X22       CONSTR1   372
    X22       CONSTR2   778
    X22       CONSTR3   625
    X22       CONSTR4   730
    X22       CONSTR5   276
    X22       CONSTR6   439
    X22       CONSTR7   235
    X22       CONSTR8   262
    X22       CONSTR9   167
    X22       CONSTR10  252
    X23       OBJ       1086
    X23       CONSTR1   440
    X23       CONSTR2   847
    X23       CONSTR3   510
    X23       CONSTR4   464
    X23       CONSTR5   548
    X23       CONSTR6   774
    X23       CONSTR7   431
    X23       CONSTR8   988
    X23       CONSTR9   942
    X23       CONSTR10  925
    X24       OBJ       681
    X24       CONSTR1   760
    X24       CONSTR2   363
    X24       CONSTR3   645
    X24       CONSTR4   327
    X24       CONSTR5   979
    X24       CONSTR6   165
    X24       CONSTR7   163
    X24       CONSTR8   987
    X24       CONSTR9   727
    X24       CONSTR10  586
    X25       OBJ       559
    X25       CONSTR1   581
    X25       CONSTR2   275
    X25       CONSTR3   361
    X25       CONSTR4   809
    X25       CONSTR5   861
    X25       CONSTR6   767
    X25       CONSTR7   501
    X25       CONSTR8   53
    X25       CONSTR9   134
    X25       CONSTR10  65
    X26       OBJ       498
    X26       CONSTR1   84
    X26       CONSTR2   247
    X26       CONSTR3   167
    X26       CONSTR4   183
    X26       CONSTR5   848
    X26       CONSTR6   965
    X26       CONSTR7   132
    X26       CONSTR8   641
    X26       CONSTR9   873
    X26       CONSTR10  32
    X27       OBJ       692
    X27       CONSTR1   60
    X27       CONSTR2   687
    X27       CONSTR3   560
    X27       CONSTR4   723
    X27       CONSTR5   972
    X27       CONSTR6   528
    X27       CONSTR7   459
    X27       CONSTR8   716
    X27       CONSTR9   761
    X27       CONSTR10  946
    X28       OBJ       823
    X28       CONSTR1   474
    X28       CONSTR2   32
    X28       CONSTR3   471
    X28       CONSTR4   360
    X28       CONSTR5   148
    X28       CONSTR6   847
    X28       CONSTR7   590
    X28       CONSTR8   616
    X28       CONSTR9   391
    X28       CONSTR10  868
    X29       OBJ       689
    X29       CONSTR1   896
    X29       CONSTR2   530
    X29       CONSTR3   437
    X29       CONSTR4   888
    X29       CONSTR5   426
    X29       CONSTR6   361
    X29       CONSTR7   16
    X29       CONSTR8   378
    X29       CONSTR9   642
    X29       CONSTR10  671
    X30       OBJ       707
    X30       CONSTR1   968
    X30       CONSTR2   804
    X30       CONSTR3   211
    X30       CONSTR4   512
    X30       CONSTR5   925
    X30       CONSTR6   647
    X30       CONSTR7   655
    X30       CONSTR8   585
    X30       CONSTR9   286
    X30       CONSTR10  392
    X31       OBJ       1013
    X31       CONSTR1   955
    X31       CONSTR2   245
    X31       CONSTR3   83
    X31       CONSTR4   926
    X31       CONSTR5   776
    X31       CONSTR6   756
    X31       CONSTR7   623
    X31       CONSTR8   5
    X31       CONSTR9   572
    X31       CONSTR10  530
    X32       OBJ       816
    X32       CONSTR1   319
    X32       CONSTR2   714
    X32       CONSTR3   735
    X32       CONSTR4   267
    X32       CONSTR5   515
    X32       CONSTR6   391
    X32       CONSTR7   247
    X32       CONSTR8   280
    X32       CONSTR9   923
    X32       CONSTR10  267
    X33       OBJ       450
    X33       CONSTR1   67
    X33       CONSTR2   811
    X33       CONSTR3   576
    X33       CONSTR4   406
    X33       CONSTR5   208
    X33       CONSTR6   280
    X33       CONSTR7   728
    X33       CONSTR8   134
    X33       CONSTR9   802
    X33       CONSTR10  1
    X34       OBJ       867
    X34       CONSTR1   403
    X34       CONSTR2   943
    X34       CONSTR3   526
    X34       CONSTR4   787
    X34       CONSTR5   583
    X34       CONSTR6   617
    X34       CONSTR7   652
    X34       CONSTR8   797
    X34       CONSTR9   575
    X34       CONSTR10  944
    X35       OBJ       862
    X35       CONSTR1   233
    X35       CONSTR2   413
    X35       CONSTR3   747
    X35       CONSTR4   263
    X35       CONSTR5   967
    X35       CONSTR6   935
    X35       CONSTR7   601
    X35       CONSTR8   273
    X35       CONSTR9   763
    X35       CONSTR10  372
    X36       OBJ       762
    X36       CONSTR1   311
    X36       CONSTR2   47
    X36       CONSTR3   67
    X36       CONSTR4   222
    X36       CONSTR5   263
    X36       CONSTR6   523
    X36       CONSTR7   798
    X36       CONSTR8   606
    X36       CONSTR9   612
    X36       CONSTR10  226
    X37       OBJ       914
    X37       CONSTR1   139
    X37       CONSTR2   157
    X37       CONSTR3   297
    X37       CONSTR4   489
    X37       CONSTR5   326
    X37       CONSTR6   726
    X37       CONSTR7   718
    X37       CONSTR8   388
    X37       CONSTR9   707
    X37       CONSTR10  972
    X38       OBJ       874
    X38       CONSTR1   362
    X38       CONSTR2   76
    X38       CONSTR3   159
    X38       CONSTR4   268
    X38       CONSTR5   567
    X38       CONSTR6   889
    X38       CONSTR7   383
    X38       CONSTR8   671
    X38       CONSTR9   695
    X38       CONSTR10  396
    X39       OBJ       986
    X39       CONSTR1   839
    X39       CONSTR2   277
    X39       CONSTR3   261
    X39       CONSTR4   444
    X39       CONSTR5   572
    X39       CONSTR6   685
    X39       CONSTR7   889
    X39       CONSTR8   513
    X39       CONSTR9   506
    X39       CONSTR10  454
    X40       OBJ       597
    X40       CONSTR1   984
    X40       CONSTR2   916
    X40       CONSTR3   929
    X40       CONSTR4   974
    X40       CONSTR5   325
    X40       CONSTR6   384
    X40       CONSTR7   60
    X40       CONSTR8   799
    X40       CONSTR9   66
    X40       CONSTR10  445
    X41       OBJ       778
    X41       CONSTR1   86
    X41       CONSTR2   995
    X41       CONSTR3   413
    X41       CONSTR4   401
    X41       CONSTR5   300
    X41       CONSTR6   106
    X41       CONSTR7   261
    X41       CONSTR8   998
    X41       CONSTR9   86
    X41       CONSTR10  890
    X42       OBJ       1048
    X42       CONSTR1   361
    X42       CONSTR2   817
    X42       CONSTR3   582
    X42       CONSTR4   713
    X42       CONSTR5   594
    X42       CONSTR6   722
    X42       CONSTR7   576
    X42       CONSTR8   893
    X42       CONSTR9   607
    X42       CONSTR10  607
    X43       OBJ       662
    X43       CONSTR1   156
    X43       CONSTR2   154
    X43       CONSTR3   36
    X43       CONSTR4   799
    X43       CONSTR5   425
    X43       CONSTR6   676
    X43       CONSTR7   846
    X43       CONSTR8   425
    X43       CONSTR9   335
    X43       CONSTR10  114
    X44       OBJ       854
    X44       CONSTR1   844
    X44       CONSTR2   643
    X44       CONSTR3   115
    X44       CONSTR4   44
    X44       CONSTR5   302
    X44       CONSTR6   565
    X44       CONSTR7   341
    X44       CONSTR8   723
    X44       CONSTR9   560
    X44       CONSTR10  597
    X45       OBJ       590
    X45       CONSTR1   702
    X45       CONSTR2   572
    X45       CONSTR3   898
    X45       CONSTR4   140
    X45       CONSTR5   849
    X45       CONSTR6   636
    X45       CONSTR7   931
    X45       CONSTR8   517
    X45       CONSTR9   164
    X45       CONSTR10  487
    X46       OBJ       1063
    X46       CONSTR1   473
    X46       CONSTR2   652
    X46       CONSTR3   199
    X46       CONSTR4   917
    X46       CONSTR5   968
    X46       CONSTR6   202
    X46       CONSTR7   740
    X46       CONSTR8   833
    X46       CONSTR9   304
    X46       CONSTR10  613
    X47       OBJ       790
    X47       CONSTR1   975
    X47       CONSTR2   389
    X47       CONSTR3   62
    X47       CONSTR4   486
    X47       CONSTR5   538
    X47       CONSTR6   553
    X47       CONSTR7   762
    X47       CONSTR8   212
    X47       CONSTR9   296
    X47       CONSTR10  344
    X48       OBJ       750
    X48       CONSTR1   45
    X48       CONSTR2   406
    X48       CONSTR3   281
    X48       CONSTR4   945
    X48       CONSTR5   218
    X48       CONSTR6   341
    X48       CONSTR7   526
    X48       CONSTR8   363
    X48       CONSTR9   299
    X48       CONSTR10  545
    X49       OBJ       712
    X49       CONSTR1   782
    X49       CONSTR2   441
    X49       CONSTR3   84
    X49       CONSTR4   572
    X49       CONSTR5   26
    X49       CONSTR6   402
    X49       CONSTR7   184
    X49       CONSTR8   919
    X49       CONSTR9   447
    X49       CONSTR10  682
    X50       OBJ       1063
    X50       CONSTR1   928
    X50       CONSTR2   569
    X50       CONSTR3   492
    X50       CONSTR4   903
    X50       CONSTR5   709
    X50       CONSTR6   834
    X50       CONSTR7   105
    X50       CONSTR8   975
    X50       CONSTR9   757
    X50       CONSTR10  111
    X51       OBJ       633
    X51       CONSTR1   113
    X51       CONSTR2   387
    X51       CONSTR3   331
    X51       CONSTR4   956
    X51       CONSTR5   154
    X51       CONSTR6   563
    X51       CONSTR7   773
    X51       CONSTR8   878
    X51       CONSTR9   684
    X51       CONSTR10  82
    X52       OBJ       488
    X52       CONSTR1   392
    X52       CONSTR2   75
    X52       CONSTR3   529
    X52       CONSTR4   19
    X52       CONSTR5   32
    X52       CONSTR6   10
    X52       CONSTR7   374
    X52       CONSTR8   265
    X52       CONSTR9   610
    X52       CONSTR10  163
    X53       OBJ       918
    X53       CONSTR1   566
    X53       CONSTR2   196
    X53       CONSTR3   203
    X53       CONSTR4   559
    X53       CONSTR5   843
    X53       CONSTR6   624
    X53       CONSTR7   200
    X53       CONSTR8   763
    X53       CONSTR9   901
    X53       CONSTR10  772
    X54       OBJ       437
    X54       CONSTR1   767
    X54       CONSTR2   37
    X54       CONSTR3   249
    X54       CONSTR4   344
    X54       CONSTR5   713
    X54       CONSTR6   9
    X54       CONSTR7   548
    X54       CONSTR8   330
    X54       CONSTR9   964
    X54       CONSTR10  409
    X55       OBJ       836
    X55       CONSTR1   214
    X55       CONSTR2   616
    X55       CONSTR3   361
    X55       CONSTR4   737
    X55       CONSTR5   758
    X55       CONSTR6   42
    X55       CONSTR7   90
    X55       CONSTR8   323
    X55       CONSTR9   483
    X55       CONSTR10  257
    X56       OBJ       874
    X56       CONSTR1   746
    X56       CONSTR2   165
    X56       CONSTR3   711
    X56       CONSTR4   469
    X56       CONSTR5   456
    X56       CONSTR6   242
    X56       CONSTR7   814
    X56       CONSTR8   554
    X56       CONSTR9   637
    X56       CONSTR10  479
    X57       OBJ       988
    X57       CONSTR1   694
    X57       CONSTR2   742
    X57       CONSTR3   818
    X57       CONSTR4   525
    X57       CONSTR5   365
    X57       CONSTR6   826
    X57       CONSTR7   177
    X57       CONSTR8   397
    X57       CONSTR9   435
    X57       CONSTR10  731
    X58       OBJ       723
    X58       CONSTR1   289
    X58       CONSTR2   124
    X58       CONSTR3   373
    X58       CONSTR4   543
    X58       CONSTR5   911
    X58       CONSTR6   815
    X58       CONSTR7   75
    X58       CONSTR8   293
    X58       CONSTR9   832
    X58       CONSTR10  781
    X59       OBJ       900
    X59       CONSTR1   565
    X59       CONSTR2   529
    X59       CONSTR3   351
    X59       CONSTR4   154
    X59       CONSTR5   771
    X59       CONSTR6   350
    X59       CONSTR7   452
    X59       CONSTR8   794
    X59       CONSTR9   245
    X59       CONSTR10  827
    X60       OBJ       537
    X60       CONSTR1   485
    X60       CONSTR2   550
    X60       CONSTR3   68
    X60       CONSTR4   583
    X60       CONSTR5   902
    X60       CONSTR6   315
    X60       CONSTR7   176
    X60       CONSTR8   29
    X60       CONSTR9   677
    X60       CONSTR10  284
    X61       OBJ       814
    X61       CONSTR1   28
    X61       CONSTR2   613
    X61       CONSTR3   25
    X61       CONSTR4   623
    X61       CONSTR5   451
    X61       CONSTR6   121
    X61       CONSTR7   947
    X61       CONSTR8   970
    X61       CONSTR9   845
    X61       CONSTR10  155
    X62       OBJ       897
    X62       CONSTR1   817
    X62       CONSTR2   378
    X62       CONSTR3   429
    X62       CONSTR4   965
    X62       CONSTR5   272
    X62       CONSTR6   826
    X62       CONSTR7   722
    X62       CONSTR8   209
    X62       CONSTR9   408
    X62       CONSTR10  6
    X63       OBJ       778
    X63       CONSTR1   348
    X63       CONSTR2   75
    X63       CONSTR3   672
    X63       CONSTR4   673
    X63       CONSTR5   417
    X63       CONSTR6   599
    X63       CONSTR7   958
    X63       CONSTR8   185
    X63       CONSTR9   107
    X63       CONSTR10  9
    X64       OBJ       766
    X64       CONSTR1   233
    X64       CONSTR2   838
    X64       CONSTR3   160
    X64       CONSTR4   187
    X64       CONSTR5   271
    X64       CONSTR6   941
    X64       CONSTR7   226
    X64       CONSTR8   400
    X64       CONSTR9   288
    X64       CONSTR10  240
    X65       OBJ       492
    X65       CONSTR1   437
    X65       CONSTR2   758
    X65       CONSTR3   533
    X65       CONSTR4   572
    X65       CONSTR5   716
    X65       CONSTR6   166
    X65       CONSTR7   289
    X65       CONSTR8   10
    X65       CONSTR9   439
    X65       CONSTR10  537
    X66       OBJ       690
    X66       CONSTR1   193
    X66       CONSTR2   644
    X66       CONSTR3   105
    X66       CONSTR4   815
    X66       CONSTR5   198
    X66       CONSTR6   883
    X66       CONSTR7   414
    X66       CONSTR8   484
    X66       CONSTR9   645
    X66       CONSTR10  36
    X67       OBJ       685
    X67       CONSTR1   21
    X67       CONSTR2   646
    X67       CONSTR3   563
    X67       CONSTR4   467
    X67       CONSTR5   20
    X67       CONSTR6   31
    X67       CONSTR7   117
    X67       CONSTR8   535
    X67       CONSTR9   407
    X67       CONSTR10  729
    X68       OBJ       630
    X68       CONSTR1   683
    X68       CONSTR2   858
    X68       CONSTR3   752
    X68       CONSTR4   770
    X68       CONSTR5   369
    X68       CONSTR6   700
    X68       CONSTR7   607
    X68       CONSTR8   254
    X68       CONSTR9   968
    X68       CONSTR10  118
    X69       OBJ       533
    X69       CONSTR1   445
    X69       CONSTR2   224
    X69       CONSTR3   988
    X69       CONSTR4   74
    X69       CONSTR5   512
    X69       CONSTR6   530
    X69       CONSTR7   380
    X69       CONSTR8   273
    X69       CONSTR9   794
    X69       CONSTR10  95
    X70       OBJ       687
    X70       CONSTR1   626
    X70       CONSTR2   588
    X70       CONSTR3   971
    X70       CONSTR4   54
    X70       CONSTR5   503
    X70       CONSTR6   261
    X70       CONSTR7   514
    X70       CONSTR8   820
    X70       CONSTR9   189
    X70       CONSTR10  426
    X71       OBJ       947
    X71       CONSTR1   294
    X71       CONSTR2   681
    X71       CONSTR3   788
    X71       CONSTR4   235
    X71       CONSTR5   485
    X71       CONSTR6   881
    X71       CONSTR7   38
    X71       CONSTR8   292
    X71       CONSTR9   884
    X71       CONSTR10  265
    X72       OBJ       572
    X72       CONSTR1   861
    X72       CONSTR2   149
    X72       CONSTR3   269
    X72       CONSTR4   338
    X72       CONSTR5   596
    X72       CONSTR6   386
    X72       CONSTR7   753
    X72       CONSTR8   115
    X72       CONSTR9   352
    X72       CONSTR10  542
    X73       OBJ       927
    X73       CONSTR1   208
    X73       CONSTR2   804
    X73       CONSTR3   691
    X73       CONSTR4   206
    X73       CONSTR5   979
    X73       CONSTR6   641
    X73       CONSTR7   778
    X73       CONSTR8   301
    X73       CONSTR9   351
    X73       CONSTR10  318
    X74       OBJ       643
    X74       CONSTR1   918
    X74       CONSTR2   742
    X74       CONSTR3   348
    X74       CONSTR4   480
    X74       CONSTR5   423
    X74       CONSTR6   867
    X74       CONSTR7   429
    X74       CONSTR8   343
    X74       CONSTR9   651
    X74       CONSTR10  521
    X75       OBJ       691
    X75       CONSTR1   835
    X75       CONSTR2   548
    X75       CONSTR3   260
    X75       CONSTR4   601
    X75       CONSTR5   45
    X75       CONSTR6   656
    X75       CONSTR7   126
    X75       CONSTR8   377
    X75       CONSTR9   997
    X75       CONSTR10  310
    X76       OBJ       647
    X76       CONSTR1   219
    X76       CONSTR2   272
    X76       CONSTR3   322
    X76       CONSTR4   265
    X76       CONSTR5   114
    X76       CONSTR6   398
    X76       CONSTR7   72
    X76       CONSTR8   475
    X76       CONSTR9   462
    X76       CONSTR10  64
    X77       OBJ       800
    X77       CONSTR1   732
    X77       CONSTR2   286
    X77       CONSTR3   851
    X77       CONSTR4   917
    X77       CONSTR5   322
    X77       CONSTR6   370
    X77       CONSTR7   857
    X77       CONSTR8   69
    X77       CONSTR9   365
    X77       CONSTR10  47
    X78       OBJ       821
    X78       CONSTR1   223
    X78       CONSTR2   814
    X78       CONSTR3   645
    X78       CONSTR4   589
    X78       CONSTR5   917
    X78       CONSTR6   222
    X78       CONSTR7   152
    X78       CONSTR8   242
    X78       CONSTR9   131
    X78       CONSTR10  979
    X79       OBJ       940
    X79       CONSTR1   564
    X79       CONSTR2   376
    X79       CONSTR3   378
    X79       CONSTR4   210
    X79       CONSTR5   541
    X79       CONSTR6   871
    X79       CONSTR7   694
    X79       CONSTR8   926
    X79       CONSTR9   759
    X79       CONSTR10  160
    X80       OBJ       553
    X80       CONSTR1   258
    X80       CONSTR2   689
    X80       CONSTR3   340
    X80       CONSTR4   62
    X80       CONSTR5   248
    X80       CONSTR6   591
    X80       CONSTR7   545
    X80       CONSTR8   822
    X80       CONSTR9   495
    X80       CONSTR10  913
    X81       OBJ       755
    X81       CONSTR1   36
    X81       CONSTR2   581
    X81       CONSTR3   543
    X81       CONSTR4   254
    X81       CONSTR5   81
    X81       CONSTR6   800
    X81       CONSTR7   526
    X81       CONSTR8   661
    X81       CONSTR9   667
    X81       CONSTR10  951
    X82       OBJ       1009
    X82       CONSTR1   669
    X82       CONSTR2   997
    X82       CONSTR3   997
    X82       CONSTR4   369
    X82       CONSTR5   201
    X82       CONSTR6   905
    X82       CONSTR7   72
    X82       CONSTR8   739
    X82       CONSTR9   438
    X82       CONSTR10  542
    X83       OBJ       756
    X83       CONSTR1   126
    X83       CONSTR2   623
    X83       CONSTR3   470
    X83       CONSTR4   262
    X83       CONSTR5   214
    X83       CONSTR6   133
    X83       CONSTR7   211
    X83       CONSTR8   984
    X83       CONSTR9   46
    X83       CONSTR10  454
    X84       OBJ       375
    X84       CONSTR1   862
    X84       CONSTR2   124
    X84       CONSTR3   863
    X84       CONSTR4   564
    X84       CONSTR5   249
    X84       CONSTR6   127
    X84       CONSTR7   23
    X84       CONSTR8   37
    X84       CONSTR9   165
    X84       CONSTR10  33
    X85       OBJ       352
    X85       CONSTR1   373
    X85       CONSTR2   514
    X85       CONSTR3   111
    X85       CONSTR4   166
    X85       CONSTR5   304
    X85       CONSTR6   85
    X85       CONSTR7   692
    X85       CONSTR8   643
    X85       CONSTR9   93
    X85       CONSTR10  6
    X86       OBJ       907
    X86       CONSTR1   170
    X86       CONSTR2   672
    X86       CONSTR3   631
    X86       CONSTR4   916
    X86       CONSTR5   58
    X86       CONSTR6   261
    X86       CONSTR7   656
    X86       CONSTR8   519
    X86       CONSTR9   514
    X86       CONSTR10  406
    X87       OBJ       741
    X87       CONSTR1   98
    X87       CONSTR2   419
    X87       CONSTR3   265
    X87       CONSTR4   412
    X87       CONSTR5   404
    X87       CONSTR6   508
    X87       CONSTR7   535
    X87       CONSTR8   239
    X87       CONSTR9   352
    X87       CONSTR10  272
    X88       OBJ       621
    X88       CONSTR1   434
    X88       CONSTR2   436
    X88       CONSTR3   356
    X88       CONSTR4   517
    X88       CONSTR5   231
    X88       CONSTR6   824
    X88       CONSTR7   578
    X88       CONSTR8   264
    X88       CONSTR9   681
    X88       CONSTR10  218
    X89       OBJ       519
    X89       CONSTR1   174
    X89       CONSTR2   867
    X89       CONSTR3   570
    X89       CONSTR4   617
    X89       CONSTR5   168
    X89       CONSTR6   787
    X89       CONSTR7   845
    X89       CONSTR8   657
    X89       CONSTR9   23
    X89       CONSTR10  422
    X90       OBJ       1067
    X90       CONSTR1   886
    X90       CONSTR2   47
    X90       CONSTR3   473
    X90       CONSTR4   771
    X90       CONSTR5   786
    X90       CONSTR6   668
    X90       CONSTR7   804
    X90       CONSTR8   426
    X90       CONSTR9   870
    X90       CONSTR10  705
    X91       OBJ       683
    X91       CONSTR1   680
    X91       CONSTR2   344
    X91       CONSTR3   679
    X91       CONSTR4   637
    X91       CONSTR5   970
    X91       CONSTR6   77
    X91       CONSTR7   937
    X91       CONSTR8   168
    X91       CONSTR9   308
    X91       CONSTR10  456
    X92       OBJ       516
    X92       CONSTR1   133
    X92       CONSTR2   144
    X92       CONSTR3   692
    X92       CONSTR4   144
    X92       CONSTR5   809
    X92       CONSTR6   679
    X92       CONSTR7   658
    X92       CONSTR8   215
    X92       CONSTR9   937
    X92       CONSTR10  160
    X93       OBJ       798
    X93       CONSTR1   338
    X93       CONSTR2   692
    X93       CONSTR3   292
    X93       CONSTR4   280
    X93       CONSTR5   346
    X93       CONSTR6   530
    X93       CONSTR7   930
    X93       CONSTR8   112
    X93       CONSTR9   954
    X93       CONSTR10  340
    X94       OBJ       776
    X94       CONSTR1   825
    X94       CONSTR2   990
    X94       CONSTR3   68
    X94       CONSTR4   333
    X94       CONSTR5   421
    X94       CONSTR6   662
    X94       CONSTR7   893
    X94       CONSTR8   898
    X94       CONSTR9   425
    X94       CONSTR10  17
    X95       OBJ       924
    X95       CONSTR1   242
    X95       CONSTR2   265
    X95       CONSTR3   767
    X95       CONSTR4   11
    X95       CONSTR5   691
    X95       CONSTR6   534
    X95       CONSTR7   629
    X95       CONSTR8   223
    X95       CONSTR9   552
    X95       CONSTR10  976
    X96       OBJ       545
    X96       CONSTR1   118
    X96       CONSTR2   661
    X96       CONSTR3   59
    X96       CONSTR4   691
    X96       CONSTR5   411
    X96       CONSTR6   922
    X96       CONSTR7   626
    X96       CONSTR8   709
    X96       CONSTR9   424
    X96       CONSTR10  25
    X97       OBJ       644
    X97       CONSTR1   389
    X97       CONSTR2   489
    X97       CONSTR3   221
    X97       CONSTR4   304
    X97       CONSTR5   714
    X97       CONSTR6   737
    X97       CONSTR7   546
    X97       CONSTR8   937
    X97       CONSTR9   104
    X97       CONSTR10  577
    X98       OBJ       876
    X98       CONSTR1   140
    X98       CONSTR2   677
    X98       CONSTR3   447
    X98       CONSTR4   37
    X98       CONSTR5   550
    X98       CONSTR6   933
    X98       CONSTR7   128
    X98       CONSTR8   610
    X98       CONSTR9   456
    X98       CONSTR10  621
    X99       OBJ       893
    X99       CONSTR1   145
    X99       CONSTR2   451
    X99       CONSTR3   313
    X99       CONSTR4   336
    X99       CONSTR5   453
    X99       CONSTR6   343
    X99       CONSTR7   763
    X99       CONSTR8   475
    X99       CONSTR9   604
    X99       CONSTR10  434
    X100      OBJ       797
    X100      CONSTR1   209
    X100      CONSTR2   215
    X100      CONSTR3   5
    X100      CONSTR4   823
    X100      CONSTR5   456
    X100      CONSTR6   579
    X100      CONSTR7   605
    X100      CONSTR8   851
    X100      CONSTR9   88
    X100      CONSTR10  348
    INT0001   'MARKER'  'INTEND'
RHS
    RHS10001  CONSTR1   32372
    RHS10001  CONSTR2   38120
    RHS10001  CONSTR3   33282
    RHS10001  CONSTR4   34572
    RHS10001  CONSTR5   37627
    RHS10001  CONSTR6   39398
    RHS10001  CONSTR7   35498
    RHS10001  CONSTR8   38167
    RHS10001  CONSTR9   38985
    RHS10001  CONSTR10  34094
BOUNDS
 BV BND       X1        .00
 BV BND       X2        .00
 BV BND       X3        .00
 BV BND       X4        .00
 BV BND       X5        .00
 BV BND       X6        .00
 BV BND       X7        .00
 BV BND       X8        .00
 BV BND       X9        .00
 BV BND       X10       .00
 BV BND       X11       .00
 BV BND       X12       .00
 BV BND       X13       .00
 BV BND       X14       .00
 BV BND       X15       .00
 BV BND       X16       .00
 BV BND       X17       .00
 BV BND       X18       .00
 BV BND       X19       .00
 BV BND       X20       .00
 BV BND       X21       .00
 BV BND       X22       .00
 BV BND       X23       .00
 BV BND       X24       .00
 BV BND       X25       .00
 BV BND       X26       .00
 BV BND       X27       .00
 BV BND       X28       .00
 BV BND       X29       .00
 BV BND       X30       .00
 BV BND       X31       .00
 BV BND       X32       .00
 BV BND       X33       .00
 BV BND       X34       .00
 BV BND       X35       .00
 BV BND       X36       .00
 BV BND       X37       .00
 BV BND       X38       .00
 BV BND       X39       .00
 BV BND       X40       .00
 BV BND       X41       .00
 BV BND       X42       .00
 BV BND       X43       .00
 BV BND       X44       .00
 BV BND       X45       .00
 BV BND       X46       .00
 BV BND       X47       .00
 BV BND       X48       .00
 BV BND       X49       .00
 BV BND       X50       .00
 BV BND       X51       .00
 BV BND       X52       .00
 BV BND       X53       .00
 BV BND       X54       .00
 BV BND       X55       .00
 BV BND       X56       .00
 BV BND       X57       .00
 BV BND       X58       .00
 BV BND       X59       .00
 BV BND       X60       .00
 BV BND       X61       .00
 BV BND       X62       .00
 BV BND       X63       .00
 BV BND       X64       .00
 BV BND       X65       .00
 BV BND       X66       .00
 BV BND       X67       .00
 BV BND       X68       .00
 BV BND       X69       .00
 BV BND       X70       .00
 BV BND       X71       .00
 BV BND       X72       .00
 BV BND       X73       .00
 BV BND       X74       .00
 BV BND       X75       .00
 BV BND       X76       .00
 BV BND       X77       .00
 BV BND       X78       .00
 BV BND       X79       .00
 BV BND       X80       .00
 BV BND       X81       .00
 BV BND       X82       .00
 BV BND       X83       .00
 BV BND       X84       .00
 BV BND       X85       .00
 BV BND       X86       .00
 BV BND       X87       .00
 BV BND       X88       .00
 BV BND       X89       .00
 BV BND       X90       .00
 BV BND       X91       .00
 BV BND       X92       .00
 BV BND       X93       .00
 BV BND       X94       .00
 BV BND       X95       .00
 BV BND       X96       .00
 BV BND       X97       .00
 BV BND       X98       .00
 BV BND       X99       .00
 BV BND       X100      .00
ENDATA
